SECTION Graph
Nodes 245
Edges 454
E 1 158 2
E 1 162 1
E 2 3 1
E 2 174 2
E 2 178 1
E 3 177 2
E 4 5 10
E 4 141 3
E 4 144 2
E 4 152 1
E 5 166 3
E 5 171 2
E 5 172 2
E 6 160 5
E 6 164 2
E 6 167 1
E 7 100 2
E 7 103 1
E 7 115 3
E 7 135 10
E 8 9 1
E 8 123 3
E 8 125 2
E 9 131 2
E 9 142 1
E 10 11 10
E 10 88 2
E 10 91 1
E 10 101 3
E 11 110 4
E 11 123 2
E 11 125 3
E 12 110 2
E 12 114 1
E 12 123 4
E 13 218 6
E 13 220 1
E 13 221 1
E 13 222 6
E 14 204 81
E 14 222 5
E 15 200 80
E 15 220 6
E 15 222 1
E 16 221 6
E 16 222 1
E 17 24 5
E 17 109 3
E 17 118 1
E 17 120 2
E 18 120 10
E 18 145 3
E 18 156 1
E 18 160 2
E 19 157 6
E 19 165 2
E 19 175 5
E 19 182 10
E 20 179 6
E 20 182 2
E 20 189 5
E 20 200 12
E 21 108 3
E 21 111 2
E 21 126 5
E 21 146 10
E 22 143 3
E 22 146 2
E 22 163 5
E 23 69 2
E 23 71 1
E 23 77 2
E 23 99 10
E 24 26 3
E 24 96 2
E 24 106 1
E 25 62 3
E 25 63 2
E 25 71 3
E 25 90 10
E 26 87 3
E 26 90 2
E 26 109 5
E 27 207 36
E 27 223 5
E 28 223 6
E 28 225 1
E 29 210 35
E 29 223 1
E 29 224 5
E 30 223 1
E 31 32 1
E 31 180 3
E 31 184 2
E 32 185 2
E 33 195 1
E 33 201 1
E 33 211 66
E 34 165 5
E 34 175 2
E 34 180 4
E 35 36 10
E 35 175 4
E 35 180 2
E 35 184 3
E 36 187 4
E 36 192 1
E 36 194 3
E 37 38 1
E 37 136 3
E 37 150 2
E 38 149 1
E 38 153 2
E 39 157 10
E 39 170 1
E 39 179 2
E 39 182 6
E 40 111 5
E 40 126 2
E 40 136 4
E 41 42 10
E 41 126 4
E 41 136 2
E 41 150 3
E 42 161 4
E 42 168 2
E 42 169 3
E 43 44 1
E 43 80 3
E 43 93 2
E 44 92 1
E 44 95 2
E 45 98 10
E 45 121 1
E 45 127 1
E 45 133 2
E 46 47 2
E 46 69 2
E 46 77 2
E 47 80 1
E 47 84 2
E 48 86 10
E 48 112 1
E 48 117 2
E 48 119 3
E 49 50 1
E 49 56 3
E 49 59 2
E 50 58 1
E 50 60 2
E 51 61 10
E 51 68 1
E 51 73 2
E 51 74 3
E 52 53 2
E 52 72 21
E 53 56 1
E 53 76 21
E 54 57 10
E 54 64 1
E 54 79 9
E 55 72 47
E 55 114 38
E 56 57 2
E 57 59 3
E 58 61 2
E 58 63 8
E 59 60 1
E 59 65 10
E 60 61 1
E 60 68 10
E 61 62 5
E 62 81 10
E 63 67 3
E 64 65 2
E 64 66 2
E 65 68 1
E 65 70 2
E 66 70 2
E 66 75 5
E 67 69 1
E 67 71 2
E 68 91 9
E 70 73 2
E 70 89 7
E 71 96 10
E 72 76 2
E 73 82 3
E 73 88 5
E 74 78 1
E 74 82 2
E 75 83 2
E 75 88 4
E 76 79 1
E 77 84 2
E 77 105 10
E 78 81 1
E 78 85 2
E 79 83 1
E 79 107 10
E 80 86 2
E 81 87 2
E 81 90 3
E 82 85 1
E 82 94 5
E 83 89 2
E 83 110 10
E 84 86 1
E 84 112 10
E 85 87 1
E 85 97 5
E 86 93 3
E 87 100 5
E 88 94 3
E 89 91 1
E 90 96 3
E 92 98 2
E 92 111 6
E 93 95 1
E 93 119 10
E 94 97 1
E 94 101 2
E 95 98 1
E 95 121 10
E 96 99 1
E 97 100 1
E 97 103 2
E 98 102 1
E 99 105 2
E 99 106 2
E 100 109 3
E 101 103 1
E 101 125 10
E 102 104 1
E 102 127 10
E 103 131 10
E 104 108 1
E 104 132 10
E 105 112 2
E 105 113 2
E 106 113 2
E 106 118 5
E 107 110 1
E 107 114 2
E 108 137 10
E 109 115 2
E 112 116 2
E 113 116 2
E 113 130 7
E 115 120 3
E 115 145 10
E 116 117 1
E 116 129 5
E 117 124 3
E 117 134 5
E 118 122 2
E 118 129 4
E 119 121 1
E 119 124 2
E 120 122 1
E 121 128 2
E 122 130 2
E 122 156 10
E 124 128 1
E 124 144 5
E 125 131 1
E 126 161 10
E 127 132 1
E 127 138 2
E 128 133 1
E 128 147 5
E 129 134 1
E 129 139 2
E 130 139 2
E 131 135 1
E 132 137 1
E 132 140 2
E 133 138 1
E 133 148 5
E 134 141 2
E 134 144 3
E 135 142 2
E 135 145 3
E 137 143 2
E 137 146 3
E 138 140 1
E 138 151 5
E 139 141 1
E 139 164 10
E 140 143 1
E 140 154 5
E 141 166 10
E 142 160 6
E 143 158 5
E 144 147 1
E 146 161 5
E 147 148 1
E 147 152 2
E 148 151 1
E 148 155 2
E 149 157 2
E 149 165 6
E 150 153 1
E 150 169 10
E 151 154 1
E 151 159 2
E 152 155 1
E 153 157 1
E 153 170 10
E 154 158 1
E 154 162 2
E 155 159 1
E 155 171 10
E 156 164 4
E 158 183 17
E 159 162 1
E 159 174 10
E 161 163 2
E 162 177 10
E 163 168 4
E 164 166 1
E 166 167 2
E 167 172 3
E 168 173 3
E 168 186 12
E 169 170 1
E 169 173 2
E 170 176 2
E 171 174 1
E 171 178 2
E 172 178 2
E 173 176 1
E 174 177 1
E 175 181 5
E 176 179 1
E 177 191 13
E 179 183 5
E 181 187 5
E 181 208 75
E 182 187 5
E 183 190 7
E 183 220 87
E 184 185 1
E 184 194 10
E 185 195 10
E 185 205 67
E 186 190 5
E 186 191 5
E 187 188 1
E 188 189 1
E 188 192 4
E 189 193 4
E 190 197 5
E 190 200 6
E 191 197 5
E 192 193 1
E 192 196 3
E 193 199 3
E 194 195 1
E 194 196 1
E 195 198 1
E 196 198 1
E 196 199 1
E 197 204 6
E 198 201 1
E 198 202 1
E 199 202 1
E 200 204 5
E 201 203 1
E 201 213 66
E 202 203 1
E 203 216 66
E 205 206 1
E 205 208 5
E 206 207 1
E 206 209 5
E 207 210 5
E 208 209 1
E 208 211 5
E 209 210 1
E 209 212 5
E 210 214 5
E 211 212 1
E 211 213 1
E 212 214 1
E 212 215 1
E 213 215 1
E 213 216 1
E 214 217 1
E 214 224 35
E 215 217 1
E 215 218 1
E 216 218 1
E 216 220 6
E 217 219 1
E 217 225 35
E 218 219 1
E 219 221 6
E 224 225 1
E 1 226 100000
E 2 226 100000
E 3 226 100000
E 4 227 100000
E 5 227 100000
E 6 227 100000
E 7 228 100000
E 8 228 100000
E 9 228 100000
E 10 229 100000
E 11 229 100000
E 12 229 100000
E 13 230 100000
E 14 230 100000
E 15 230 100000
E 16 230 100000
E 17 231 100000
E 18 231 100000
E 19 232 100000
E 20 232 100000
E 21 233 100000
E 22 233 100000
E 23 234 100000
E 24 234 100000
E 25 235 100000
E 26 235 100000
E 27 236 100000
E 28 236 100000
E 29 236 100000
E 30 236 100000
E 31 237 100000
E 32 237 100000
E 33 237 100000
E 34 238 100000
E 35 238 100000
E 36 238 100000
E 37 239 100000
E 38 239 100000
E 39 239 100000
E 40 240 100000
E 41 240 100000
E 42 240 100000
E 43 241 100000
E 44 241 100000
E 45 241 100000
E 46 242 100000
E 47 242 100000
E 48 242 100000
E 49 243 100000
E 50 243 100000
E 51 243 100000
E 52 244 100000
E 53 244 100000
E 54 244 100000
E 55 245 100000
END

SECTION Terminals
Terminals 20
T 226
T 227
T 228
T 229
T 230
T 231
T 232
T 233
T 234
T 235
T 236
T 237
T 238
T 239
T 240
T 241
T 242
T 243
T 244
T 245
END

EOF
